language ESSENCE' 1.0
$ minion Nodes: 8
$ minion TotalTime: 0.000994
$ Savile Row TotalTime: 0.402
letting a_tuple1 be 0
letting b_tuple1 be 0
letting b_tuple2 be 3
letting c_tuple1 be 0
letting c_tuple2_SetExplicitVarSizeWithDefault be [5, 5;int(1..2)]
letting b_tuple3_SetOccurrence be [false, false;int(3..4)]
